(set-logic QF_S)
(declare-fun T_1e6 () Bool)
(declare-fun T_1ee () Bool)
(declare-fun T_SELECT_27 () Bool)
(declare-fun T_SELECT_28 () Bool)
(declare-fun I0_904 () Int)
(declare-fun I1_904 () Int)
(declare-fun I2_904 () Int)
(declare-fun PCTEMP_LHS_39 () Int)
(declare-fun PCTEMP_LHS_40 () Int)
(declare-fun T_1f5 () Int)
(declare-fun T_1fc () Int)
(declare-fun T0_874 () String)
(declare-fun T1_874 () String)
(declare-fun T_1ec () String)
(assert (= T_1ec (str.++ T0_874 T1_874)))
(assert (not (str.in.re T1_874 (str.to.re ";"))))
(assert T_1ee)
(assert (= T_1ee (< PCTEMP_LHS_40 0)))
(assert (= PCTEMP_LHS_40 (- 1)))
(assert (= T_SELECT_28 (not (= PCTEMP_LHS_40 (- 1)))))
(assert (= T_SELECT_27 (not (= PCTEMP_LHS_39 (- 1)))))
(assert T_1e6)
(assert (= T_1e6 (< (- 1) PCTEMP_LHS_39)))
(assert (>= T_1fc T_1f5))
(assert (= I2_904 I1_904))
(assert (<= T_1fc I1_904))
(assert (= I0_904 (- T_1fc T_1f5)))
(assert (>= T_1f5 0))
(assert (= T_1f5 (+ PCTEMP_LHS_39 7)))
(assert (= PCTEMP_LHS_39 (str.len T0_874))) ; len 0
(assert (not T_SELECT_28))
(check-sat)
